NAME : pr439.opt.tour
COMMENT : Tour result for pr439.tsp (107661.0)
TYPE : TOUR
DIMENSION : 439
TOUR_SECTION
1
4
5
6
7
8
9
10
11
12
13
14
15
16
17
33
34
35
36
37
38
39
42
44
40
41
43
45
46
49
47
48
50
51
53
54
55
56
82
81
80
79
57
58
78
86
87
77
59
60
61
76
75
62
32
31
30
28
26
27
29
63
73
74
64
25
23
24
22
21
20
18
19
67
66
65
68
69
70
71
72
88
89
90
91
104
105
106
107
108
109
110
111
112
146
144
147
148
145
185
190
191
184
192
183
182
181
154
155
156
157
179
180
178
177
159
158
138
139
140
141
142
152
153
151
150
143
113
114
116
118
119
121
122
101
120
117
115
103
102
92
93
94
100
95
96
97
98
99
125
123
124
126
127
129
128
130
131
132
133
167
165
166
164
163
162
134
135
136
137
160
161
175
176
204
174
173
172
171
170
169
168
208
207
206
205
203
202
201
200
199
198
197
196
195
194
193
221
220
219
218
217
216
215
214
213
212
211
210
250
251
209
253
252
255
254
316
315
317
318
319
320
321
322
323
324
325
326
327
328
329
331
332
330
304
303
302
301
272
271
270
269
268
305
306
267
266
265
264
307
308
309
263
262
261
260
310
311
312
313
314
259
258
257
256
249
248
247
246
245
244
243
242
241
240
239
238
237
236
235
234
233
222
223
224
273
274
275
276
277
278
279
294
295
296
297
298
299
300
333
334
335
336
337
338
339
360
370
361
362
363
364
365
366
367
368
369
378
385
386
387
388
401
400
402
404
405
417
418
428
429
431
416
415
419
420
421
414
406
407
413
412
423
422
432
433
430
427
424
426
425
410
411
409
408
403
434
438
437
436
435
439
284
344
343
342
341
373
371
372
383
382
384
394
395
393
397
396
398
399
392
391
381
375
374
380
390
389
379
377
376
345
346
348
347
349
350
351
353
352
354
355
356
358
357
359
293
292
291
290
289
288
340
287
286
285
280
232
231
225
189
188
187
230
281
282
229
283
228
227
226
186
149
85
84
83
52
2
3
-1
EOF